Reading model...
...model read.
creating competitive generators file...
...competitive generators recorded.
Loading data...
.. real-time data read.
Compiling instance...
0.0
0.0
0.0
0.0
...instance created.
Creating Offer Mitigation (model will solve as dispatch if TRUE)...
...storage offer mitigation file created
Converting model to MPEC...
...converted
NOTE: initial MIP solve with only storage competitive to get feasible solution
Solving...

Welcome to IBM(R) ILOG(R) CPLEX(R) Interactive Optimizer 12.9.0.0
  with Simplex, Mixed Integer & Barrier Optimizers
5725-A06 5725-A29 5724-Y48 5724-Y49 5724-Y54 5724-Y55 5655-Y21
Copyright IBM Corp. 1988, 2019.  All Rights Reserved.

Type 'help' for a list of available commands.
Type 'help' followed by a command name for more
information on commands.

CPLEX> Logfile 'cplex.log' closed.
Logfile 'C:\Users\llavin\Desktop\test826\logs\tmp4ea95ns_.cplex.log' open.
CPLEX> New value for parallel optimization mode: -1
CPLEX> New value for mixed integer optimality gap tolerance: 0.05
CPLEX> New value for emphasis for MIP optimization: 1
CPLEX> New value for integrality tolerance: 1e-10
CPLEX> New value for deterministic time limit in ticks: 50000
CPLEX> Problem 'C:\Users\llavin\Desktop\test826\logs\tmpojjjs840.pyomo.lp' read.
Read time = 0.53 sec. (28.53 ticks)
CPLEX> Problem name         : C:\Users\llavin\Desktop\test826\logs\tmpojjjs840.pyomo.lp
Objective sense      : Maximize
Variables            :  107783  [Nneg: 1,  Box: 44058,  Free: 8928,
                                 Binary: 54796]
Objective nonzeros   :   18372
Linear constraints   :  246901  [Less: 82864,  Greater: 118424,  Equal: 45613]
  Nonzeros           :  619167
  RHS nonzeros       :  135875

Variables            : Min LB: -5000.000        Max UB: 1000000.       
Objective nonzeros   : Min   : 0.008333333      Max   : 208.3333       
Linear constraints   :
  Nonzeros           : Min   : 0.008333333      Max   : 1000000.       
  RHS nonzeros       : Min   : 0.008333333      Max   : 1000000.       
CPLEX> CPXPARAM_Parallel                                -1
CPXPARAM_Emphasis_MIP                            1
CPXPARAM_DetTimeLimit                            50000
CPXPARAM_MIP_Tolerances_MIPGap                   0.050000000000000003
CPXPARAM_MIP_Tolerances_Integrality              1e-10
Tried aggregator 3 times.
MIP Presolve eliminated 176756 rows and 37323 columns.
MIP Presolve added 7065 rows and 0 columns.
MIP Presolve modified 51870 coefficients.
Aggregator did 26037 substitutions.
Reduced MIP has 51173 rows, 43549 columns, and 148519 nonzeros.
Reduced MIP has 17232 binaries, 0 generals, 0 SOSs, and 0 indicators.
Presolve time = 0.63 sec. (350.97 ticks)
Probing fixed 797 vars, tightened 12344 bounds.
Probing time = 0.44 sec. (17.12 ticks)
Tried aggregator 2 times.
MIP Presolve eliminated 1809 rows and 1618 columns.
MIP Presolve modified 6453 coefficients.
Aggregator did 56 substitutions.
Reduced MIP has 49308 rows, 41875 columns, and 142950 nonzeros.
Reduced MIP has 16430 binaries, 0 generals, 0 SOSs, and 0 indicators.
Presolve time = 0.28 sec. (259.73 ticks)
Probing fixed 6 vars, tightened 551 bounds.
Probing time = 0.56 sec. (19.90 ticks)
Clique table members: 85323.
MIP emphasis: integer feasibility.
MIP search method: dynamic search.
Parallel mode: opportunistic, using up to 32 threads.
Root relaxation solution time = 1.11 sec. (1965.12 ticks)

        Nodes                                         Cuts/
   Node  Left     Objective  IInf  Best Integer    Best Bound    ItCnt     Gap

      0     0        0.0000    51                      0.0000    10013         
*     0+    0                            0.0000        0.0000             0.00%
      0     0        cutoff              0.0000        0.0000    10056    0.00%
Elapsed time = 4.53 sec. (3908.40 ticks, tree = 0.01 MB, solutions = 1)

Root node processing (before b&c):
  Real time             =    4.56 sec. (3912.09 ticks)
Parallel b&c, 32 threads:
  Real time             =    0.00 sec. (0.00 ticks)
  Sync time (average)   =    0.00 sec.
  Wait time (average)   =    0.00 sec.
                          ------------
Total (root+branch&cut) =    4.56 sec. (3912.09 ticks)

Solution pool: 1 solution saved.

MIP - Integer optimal solution:  Objective =  2.8990143619e-10
Solution time =    4.58 sec.  Iterations = 10056  Nodes = 0
Deterministic time = 3912.40 ticks  (854.61 ticks/sec)

CPLEX> Incumbent solution written to file 'C:\Users\llavin\Desktop\test826\logs\tmphgnbyads.cplex.sol'.
CPLEX> NOTE: no warmstart specified for MIP iteration, default behavior is true
NOTE: resolving with all competitive generators using storage-only solution to warmstart
Solving...

Welcome to IBM(R) ILOG(R) CPLEX(R) Interactive Optimizer 12.9.0.0
  with Simplex, Mixed Integer & Barrier Optimizers
5725-A06 5725-A29 5724-Y48 5724-Y49 5724-Y54 5724-Y55 5655-Y21
Copyright IBM Corp. 1988, 2019.  All Rights Reserved.

Type 'help' for a list of available commands.
Type 'help' followed by a command name for more
information on commands.

CPLEX> Logfile 'cplex.log' closed.
Logfile 'C:\Users\llavin\Desktop\test826\logs\tmpvgjzqykp.cplex.log' open.
CPLEX> New value for parallel optimization mode: -1
CPLEX> New value for mixed integer optimality gap tolerance: 0.05
CPLEX> New value for emphasis for MIP optimization: 1
CPLEX> New value for integrality tolerance: 1e-10
CPLEX> New value for deterministic time limit in ticks: 50000
CPLEX> Problem 'C:\Users\llavin\Desktop\test826\logs\tmpbwlkkbf1.pyomo.lp' read.
Read time = 0.58 sec. (28.58 ticks)
CPLEX> MIP start file 'C:\Users\llavin\Desktop\test826\logs\tmpid_c9jff.cplex.mst' read.
CPLEX> Problem name         : C:\Users\llavin\Desktop\test826\logs\tmpbwlkkbf1.pyomo.lp
Objective sense      : Maximize
Variables            :  109223  [Nneg: 1,  Box: 45498,  Free: 8928,
                                 Binary: 54796]
Objective nonzeros   :   19764
Linear constraints   :  246901  [Less: 82864,  Greater: 118424,  Equal: 45613]
  Nonzeros           :  619167
  RHS nonzeros       :  135875

Variables            : Min LB: -5000.000        Max UB: 1000000.       
Objective nonzeros   : Min   : 0.008333333      Max   : 208.3333       
Linear constraints   :
  Nonzeros           : Min   : 0.008333333      Max   : 1000000.       
  RHS nonzeros       : Min   : 0.008333333      Max   : 1000000.       
CPLEX> CPXPARAM_Parallel                                -1
CPXPARAM_Emphasis_MIP                            1
CPXPARAM_DetTimeLimit                            50000
CPXPARAM_MIP_Tolerances_MIPGap                   0.050000000000000003
CPXPARAM_MIP_Tolerances_Integrality              1e-10
Warning:  No solution found from 1 MIP starts.
Retaining values of one MIP start for possible repair.
Tried aggregator 3 times.
MIP Presolve eliminated 176756 rows and 38763 columns.
MIP Presolve added 7065 rows and 0 columns.
MIP Presolve modified 51870 coefficients.
Aggregator did 26037 substitutions.
Reduced MIP has 51173 rows, 43549 columns, and 148519 nonzeros.
Reduced MIP has 17232 binaries, 0 generals, 0 SOSs, and 0 indicators.
Presolve time = 0.64 sec. (351.70 ticks)
Probing fixed 797 vars, tightened 12344 bounds.
Probing time = 0.42 sec. (17.12 ticks)
Tried aggregator 2 times.
MIP Presolve eliminated 1809 rows and 1618 columns.
MIP Presolve modified 6453 coefficients.
Aggregator did 56 substitutions.
Reduced MIP has 49308 rows, 41875 columns, and 142950 nonzeros.
Reduced MIP has 16430 binaries, 0 generals, 0 SOSs, and 0 indicators.
Presolve time = 0.28 sec. (259.75 ticks)
Probing fixed 6 vars, tightened 551 bounds.
Probing time = 0.58 sec. (19.90 ticks)
Clique table members: 85323.
MIP emphasis: integer feasibility.
MIP search method: dynamic search.
Parallel mode: opportunistic, using up to 32 threads.
Root relaxation solution time = 1.36 sec. (2212.15 ticks)

        Nodes                                         Cuts/
   Node  Left     Objective  IInf  Best Integer    Best Bound    ItCnt     Gap

      0     0    13059.4425   392                  13059.4425    11616         
      0     0    11875.8673   256                   Cuts: 193    12012         
      0     0    11855.7884   222                    Cuts: 69    12099         
      0     0    11851.6775   224                    Cuts: 11    12136         
Repair heuristic found nothing.
      0    19    10427.0725   196                  11070.3880    12347         
Elapsed time = 9.19 sec. (5100.51 ticks, tree = 0.02 MB, solutions = 0)
    299    47    10658.3667   206                  10994.1076    12543         
    693   135     9806.8633   160                  10994.1076    13247         
   1085   511     8942.3829   118                  10977.9205    15961         
   1466  1191     6621.4823    80                  10977.9205    21685         
   1707  1205    infeasible                        10977.9205    22269         
   1976  1327      768.8167    13                  10977.9205    23799         
   2329  1548      750.8861    31                  10977.9205    29846         
   2678  1849    -5602.2524   140                  10977.9205    45334         
   3049  1694    infeasible                        10977.9205    36638         
*  4350  2361      integral     0        0.0000    10977.9205    59901     --- 
   4487  1881        cutoff              0.0000    10977.9205    79978     --- 
Elapsed time = 31.33 sec. (8213.29 ticks, tree = 18.49 MB, solutions = 1)
   5806  2997   -11924.2200     5        0.0000    10763.5688    78022     --- 
   7225   512        cutoff              0.0000     6465.3400   211400     --- 

Cover cuts applied:  5
Flow cuts applied:  243
Mixed integer rounding cuts applied:  1

Root node processing (before b&c):
  Real time             =    6.59 sec. (5050.28 ticks)
Parallel b&c, 32 threads:
  Real time             =   32.03 sec. (5576.17 ticks)
  Sync time (average)   =    1.44 sec.
  Wait time (average)   =    0.00 sec.
                          ------------
Total (root+branch&cut) =   38.63 sec. (10626.45 ticks)

Solution pool: 1 solution saved.

MIP - Integer optimal solution:  Objective =  2.3010215955e-10
Solution time =   38.67 sec.  Iterations = 228754  Nodes = 7365
Deterministic time = 10626.76 ticks  (274.80 ticks/sec)

CPLEX> Incumbent solution written to file 'C:\Users\llavin\Desktop\test826\logs\tmpeosww0wb.cplex.sol'.
CPLEX> Exporting results... 
